p cnf 1228
-19 -383
-20 -386
-21 -389
-22 -392
-23 -395
-24 -398
-25 -401
-26 -404
-27 -407
-28 -410
-29 -413
-30 -416
-31 -419
-32 -422
-33 -425
-34 -428
-35 -431
-36 -434
-37 435
-38 436
-39 437
-40 438
-41 439
-42 440
-43 441
-44 442
-45 443
-46 -20
-46 -21
20 21 46
-47 -22
-47 -23
22 23 47
-48 -24
-48 -25
24 25 48
-49 -26
-49 -27
26 27 49
-50 -28
-50 -29
28 29 50
-51 -30
-51 -31
30 31 51
-52 -32
-52 -33
32 33 52
-53 -34
-53 -35
34 35 53
-54 -36
-54 -37
36 37 54
-55 -38
-55 -39
38 39 55
-56 -40
-56 -41
40 41 56
-57 -42
-57 -43
42 43 57
-58 -44
-58 -45
44 45 58
-59 46
-59 47
-46 -47 59
-60 48
-60 49
-48 -49 60
-61 50
-61 51
-50 -51 61
-62 52
-62 53
-52 -53 62
-63 54
-63 55
-54 -55 63
-64 56
-64 57
-56 -57 64
-65 59
-65 60
-59 -60 65
-66 61
-66 62
-61 -62 66
-67 63
-67 64
-63 -64 67
-68 65
-68 66
-65 -66 68
-69 58
-69 67
-58 -67 69
-70 68
-70 69
-68 -69 70
-71 -19
-71 20
19 -20 71
-72 19
-72 -20
-19 20 72
-73 -71
-73 -72
71 72 73
-74 19
-74 20
-19 -20 74
-75 -19
-75 -73
19 73 75
-76 19
-76 73
-19 -73 76
-77 -75
-77 -76
75 76 77
-78 19
-78 -73
-19 73 78
-79 -74
-79 -78
74 78 79
-80 -20
-80 21
20 -21 80
-81 20
-81 -21
-20 21 81
-82 -80
-82 -81
80 81 82
-83 20
-83 21
-20 -21 83
-84 79
-84 -82
-79 82 84
-85 -79
-85 82
79 -82 85
-86 -84
-86 -85
84 85 86
-87 -79
-87 -82
79 82 87
-88 -83
-88 -87
83 87 88
-89 -21
-89 22
21 -22 89
-90 21
-90 -22
-21 22 90
-91 -89
-91 -90
89 90 91
-92 21
-92 22
-21 -22 92
-93 88
-93 -91
-88 91 93
-94 -88
-94 91
88 -91 94
-95 -93
-95 -94
93 94 95
-96 -88
-96 -91
88 91 96
-97 -92
-97 -96
92 96 97
-98 -22
-98 23
22 -23 98
-99 22
-99 -23
-22 23 99
-100 -98
-100 -99
98 99 100
-101 22
-101 23
-22 -23 101
-102 97
-102 -100
-97 100 102
-103 -97
-103 100
97 -100 103
-104 -102
-104 -103
102 103 104
-105 -97
-105 -100
97 100 105
-106 -101
-106 -105
101 105 106
-107 -23
-107 24
23 -24 107
-108 23
-108 -24
-23 24 108
-109 -107
-109 -108
107 108 109
-110 23
-110 24
-23 -24 110
-111 106
-111 -109
-106 109 111
-112 -106
-112 109
106 -109 112
-113 -111
-113 -112
111 112 113
-114 -106
-114 -109
106 109 114
-115 -110
-115 -114
110 114 115
-116 -24
-116 25
24 -25 116
-117 24
-117 -25
-24 25 117
-118 -116
-118 -117
116 117 118
-119 24
-119 25
-24 -25 119
-120 115
-120 -118
-115 118 120
-121 -115
-121 118
115 -118 121
-122 -120
-122 -121
120 121 122
-123 -115
-123 -118
115 118 123
-124 -119
-124 -123
119 123 124
-125 -25
-125 26
25 -26 125
-126 25
-126 -26
-25 26 126
-127 -125
-127 -126
125 126 127
-128 25
-128 26
-25 -26 128
-129 124
-129 -127
-124 127 129
-130 -124
-130 127
124 -127 130
-131 -129
-131 -130
129 130 131
-132 -124
-132 -127
124 127 132
-133 -128
-133 -132
128 132 133
-134 -26
-134 27
26 -27 134
-135 26
-135 -27
-26 27 135
-136 -134
-136 -135
134 135 136
-137 26
-137 27
-26 -27 137
-138 133
-138 -136
-133 136 138
-139 -133
-139 136
133 -136 139
-140 -138
-140 -139
138 139 140
-141 -133
-141 -136
133 136 141
-142 -137
-142 -141
137 141 142
-143 -27
-143 28
27 -28 143
-144 27
-144 -28
-27 28 144
-145 -143
-145 -144
143 144 145
-146 27
-146 28
-27 -28 146
-147 142
-147 -145
-142 145 147
-148 -142
-148 145
142 -145 148
-149 -147
-149 -148
147 148 149
-150 -142
-150 -145
142 145 150
-151 -146
-151 -150
146 150 151
-152 -28
-152 29
28 -29 152
-153 28
-153 -29
-28 29 153
-154 -152
-154 -153
152 153 154
-155 28
-155 29
-28 -29 155
-156 151
-156 -154
-151 154 156
-157 -151
-157 154
151 -154 157
-158 -156
-158 -157
156 157 158
-159 -151
-159 -154
151 154 159
-160 -155
-160 -159
155 159 160
-161 -29
-161 30
29 -30 161
-162 29
-162 -30
-29 30 162
-163 -161
-163 -162
161 162 163
-164 29
-164 30
-29 -30 164
-165 160
-165 -163
-160 163 165
-166 -160
-166 163
160 -163 166
-167 -165
-167 -166
165 166 167
-168 -160
-168 -163
160 163 168
-169 -164
-169 -168
164 168 169
-170 -30
-170 31
30 -31 170
-171 30
-171 -31
-30 31 171
-172 -170
-172 -171
170 171 172
-173 30
-173 31
-30 -31 173
-174 169
-174 -172
-169 172 174
-175 -169
-175 172
169 -172 175
-176 -174
-176 -175
174 175 176
-177 -169
-177 -172
169 172 177
-178 -173
-178 -177
173 177 178
-179 -31
-179 32
31 -32 179
-180 31
-180 -32
-31 32 180
-181 -179
-181 -180
179 180 181
-182 31
-182 32
-31 -32 182
-183 178
-183 -181
-178 181 183
-184 -178
-184 181
178 -181 184
-185 -183
-185 -184
183 184 185
-186 -178
-186 -181
178 181 186
-187 -182
-187 -186
182 186 187
-188 -32
-188 33
32 -33 188
-189 32
-189 -33
-32 33 189
-190 -188
-190 -189
188 189 190
-191 32
-191 33
-32 -33 191
-192 187
-192 -190
-187 190 192
-193 -187
-193 190
187 -190 193
-194 -192
-194 -193
192 193 194
-195 -187
-195 -190
187 190 195
-196 -191
-196 -195
191 195 196
-197 -33
-197 34
33 -34 197
-198 33
-198 -34
-33 34 198
-199 -197
-199 -198
197 198 199
-200 33
-200 34
-33 -34 200
-201 196
-201 -199
-196 199 201
-202 -196
-202 199
196 -199 202
-203 -201
-203 -202
201 202 203
-204 -196
-204 -199
196 199 204
-205 -200
-205 -204
200 204 205
-206 -34
-206 35
34 -35 206
-207 34
-207 -35
-34 35 207
-208 -206
-208 -207
206 207 208
-209 34
-209 35
-34 -35 209
-210 205
-210 -208
-205 208 210
-211 -205
-211 208
205 -208 211
-212 -210
-212 -211
210 211 212
-213 -205
-213 -208
205 208 213
-214 -209
-214 -213
209 213 214
-215 -35
-215 36
35 -36 215
-216 35
-216 -36
-35 36 216
-217 -215
-217 -216
215 216 217
-218 35
-218 36
-35 -36 218
-219 214
-219 -217
-214 217 219
-220 -214
-220 217
214 -217 220
-221 -219
-221 -220
219 220 221
-222 -214
-222 -217
214 217 222
-223 -218
-223 -222
218 222 223
-224 -36
-224 37
36 -37 224
-225 36
-225 -37
-36 37 225
-226 -224
-226 -225
224 225 226
-227 36
-227 37
-36 -37 227
-228 223
-228 -226
-223 226 228
-229 -223
-229 226
223 -226 229
-230 -228
-230 -229
228 229 230
-231 -223
-231 -226
223 226 231
-232 -227
-232 -231
227 231 232
-233 -37
-233 38
37 -38 233
-234 37
-234 -38
-37 38 234
-235 -233
-235 -234
233 234 235
-236 37
-236 38
-37 -38 236
-237 232
-237 -235
-232 235 237
-238 -232
-238 235
232 -235 238
-239 -237
-239 -238
237 238 239
-240 -232
-240 -235
232 235 240
-241 -236
-241 -240
236 240 241
-242 -38
-242 39
38 -39 242
-243 38
-243 -39
-38 39 243
-244 -242
-244 -243
242 243 244
-245 38
-245 39
-38 -39 245
-246 241
-246 -244
-241 244 246
-247 -241
-247 244
241 -244 247
-248 -246
-248 -247
246 247 248
-249 -241
-249 -244
241 244 249
-250 -245
-250 -249
245 249 250
-251 -39
-251 40
39 -40 251
-252 39
-252 -40
-39 40 252
-253 -251
-253 -252
251 252 253
-254 39
-254 40
-39 -40 254
-255 250
-255 -253
-250 253 255
-256 -250
-256 253
250 -253 256
-257 -255
-257 -256
255 256 257
-258 -250
-258 -253
250 253 258
-259 -254
-259 -258
254 258 259
-260 -40
-260 41
40 -41 260
-261 40
-261 -41
-40 41 261
-262 -260
-262 -261
260 261 262
-263 40
-263 41
-40 -41 263
-264 259
-264 -262
-259 262 264
-265 -259
-265 262
259 -262 265
-266 -264
-266 -265
264 265 266
-267 -259
-267 -262
259 262 267
-268 -263
-268 -267
263 267 268
-269 -41
-269 42
41 -42 269
-270 41
-270 -42
-41 42 270
-271 -269
-271 -270
269 270 271
-272 41
-272 42
-41 -42 272
-273 268
-273 -271
-268 271 273
-274 -268
-274 271
268 -271 274
-275 -273
-275 -274
273 274 275
-276 -268
-276 -271
268 271 276
-277 -272
-277 -276
272 276 277
-278 -42
-278 43
42 -43 278
-279 42
-279 -43
-42 43 279
-280 -278
-280 -279
278 279 280
-281 42
-281 43
-42 -43 281
-282 277
-282 -280
-277 280 282
-283 -277
-283 280
277 -280 283
-284 -282
-284 -283
282 283 284
-285 -277
-285 -280
277 280 285
-286 -281
-286 -285
281 285 286
-287 -43
-287 44
43 -44 287
-288 43
-288 -44
-43 44 288
-289 -287
-289 -288
287 288 289
-290 43
-290 44
-43 -44 290
-291 286
-291 -289
-286 289 291
-292 -286
-292 289
286 -289 292
-293 -291
-293 -292
291 292 293
-294 -286
-294 -289
286 289 294
-295 -290
-295 -294
290 294 295
-296 -44
-296 45
44 -45 296
-297 44
-297 -45
-44 45 297
-298 -296
-298 -297
296 297 298
-299 44
-299 45
-44 -45 299
-300 295
-300 -298
-295 298 300
-301 -295
-301 298
295 -298 301
-302 -300
-302 -301
300 301 302
-303 -295
-303 -298
295 298 303
-304 -299
-304 -303
299 303 304
-305 19
-305 -77
-19 77 305
-306 -19
-306 21
19 -21 306
-307 -305
-307 -306
305 306 307
-308 19
-308 -86
-19 86 308
-309 -19
-309 22
19 -22 309
-310 -308
-310 -309
308 309 310
-311 19
-311 -95
-19 95 311
-312 -19
-312 23
19 -23 312
-313 -311
-313 -312
311 312 313
-314 19
-314 -104
-19 104 314
-315 -19
-315 24
19 -24 315
-316 -314
-316 -315
314 315 316
-317 19
-317 -113
-19 113 317
-318 -19
-318 25
19 -25 318
-319 -317
-319 -318
317 318 319
-320 19
-320 -122
-19 122 320
-321 -19
-321 26
19 -26 321
-322 -320
-322 -321
320 321 322
-323 19
-323 -131
-19 131 323
-324 -19
-324 27
19 -27 324
-325 -323
-325 -324
323 324 325
-326 19
-326 -140
-19 140 326
-327 -19
-327 28
19 -28 327
-328 -326
-328 -327
326 327 328
-329 19
-329 -149
-19 149 329
-330 -19
-330 29
19 -29 330
-331 -329
-331 -330
329 330 331
-332 19
-332 -158
-19 158 332
-333 -19
-333 30
19 -30 333
-334 -332
-334 -333
332 333 334
-335 19
-335 -167
-19 167 335
-336 -19
-336 31
19 -31 336
-337 -335
-337 -336
335 336 337
-338 19
-338 -176
-19 176 338
-339 -19
-339 32
19 -32 339
-340 -338
-340 -339
338 339 340
-341 19
-341 -185
-19 185 341
-342 -19
-342 33
19 -33 342
-343 -341
-343 -342
341 342 343
-344 19
-344 -194
-19 194 344
-345 -19
-345 34
19 -34 345
-346 -344
-346 -345
344 345 346
-347 19
-347 -203
-19 203 347
-348 -19
-348 35
19 -35 348
-349 -347
-349 -348
347 348 349
-350 19
-350 -212
-19 212 350
-351 -19
-351 36
19 -36 351
-352 -350
-352 -351
350 351 352
-353 19
-353 -221
-19 221 353
-354 -19
-354 37
19 -37 354
-355 -353
-355 -354
353 354 355
-356 19
-356 -230
-19 230 356
-357 -19
-357 38
19 -38 357
-358 -356
-358 -357
356 357 358
-359 19
-359 -239
-19 239 359
-360 -19
-360 39
19 -39 360
-361 -359
-361 -360
359 360 361
-362 19
-362 -248
-19 248 362
-363 -19
-363 40
19 -40 363
-364 -362
-364 -363
362 363 364
-365 19
-365 -257
-19 257 365
-366 -19
-366 41
19 -41 366
-367 -365
-367 -366
365 366 367
-368 19
-368 -266
-19 266 368
-369 -19
-369 42
19 -42 369
-370 -368
-370 -369
368 369 370
-371 19
-371 -275
-19 275 371
-372 -19
-372 43
19 -43 372
-373 -371
-373 -372
371 372 373
-374 19
-374 -284
-19 284 374
-375 -19
-375 44
19 -44 375
-376 -374
-376 -375
374 375 376
-377 19
-377 -293
-19 293 377
-378 -19
-378 45
19 -45 378
-379 -377
-379 -378
377 378 379
-380 19
-380 -302
-19 302 380
-381 1
-381 70
-1 -70 381
-382 -70
-382 71
70 -71 382
-383 -381
-383 -382
381 382 383
-384 2
-384 70
-2 -70 384
-385 -70
-385 -307
70 307 385
-386 -384
-386 -385
384 385 386
-387 3
-387 70
-3 -70 387
-388 -70
-388 -310
70 310 388
-389 -387
-389 -388
387 388 389
-390 4
-390 70
-4 -70 390
-391 -70
-391 -313
70 313 391
-392 -390
-392 -391
390 391 392
-393 5
-393 70
-5 -70 393
-394 -70
-394 -316
70 316 394
-395 -393
-395 -394
393 394 395
-396 6
-396 70
-6 -70 396
-397 -70
-397 -319
70 319 397
-398 -396
-398 -397
396 397 398
-399 7
-399 70
-7 -70 399
-400 -70
-400 -322
70 322 400
-401 -399
-401 -400
399 400 401
-402 8
-402 70
-8 -70 402
-403 -70
-403 -325
70 325 403
-404 -402
-404 -403
402 403 404
-405 9
-405 70
-9 -70 405
-406 -70
-406 -328
70 328 406
-407 -405
-407 -406
405 406 407
-408 10
-408 70
-10 -70 408
-409 -70
-409 -331
70 331 409
-410 -408
-410 -409
408 409 410
-411 11
-411 70
-11 -70 411
-412 -70
-412 -334
70 334 412
-413 -411
-413 -412
411 412 413
-414 12
-414 70
-12 -70 414
-415 -70
-415 -337
70 337 415
-416 -414
-416 -415
414 415 416
-417 13
-417 70
-13 -70 417
-418 -70
-418 -340
70 340 418
-419 -417
-419 -418
417 418 419
-420 14
-420 70
-14 -70 420
-421 -70
-421 -343
70 343 421
-422 -420
-422 -421
420 421 422
-423 15
-423 70
-15 -70 423
-424 -70
-424 -346
70 346 424
-425 -423
-425 -424
423 424 425
-426 16
-426 70
-16 -70 426
-427 -70
-427 -349
70 349 427
-428 -426
-428 -427
426 427 428
-429 17
-429 70
-17 -70 429
-430 -70
-430 -352
70 352 430
-431 -429
-431 -430
429 430 431
-432 18
-432 70
-18 -70 432
-433 -70
-433 -355
70 355 433
-434 -432
-434 -433
432 433 434
-435 -70
-435 -358
70 358 435
-436 -70
-436 -361
70 361 436
-437 -70
-437 -364
70 364 437
-438 -70
-438 -367
70 367 438
-439 -70
-439 -370
70 370 439
-440 -70
-440 -373
70 373 440
-441 -70
-441 -376
70 376 441
-442 -70
-442 -379
70 379 442
-443 -70
-443 380
70 -380 443
-444 -45
-444 304
45 -304 444
-445 19
-445 -444
-19 444 445
445
